
Gurobi 12.0.2 (win64) logging started Sat Feb  7 08:02:24 2026

Set parameter LogFile to value "gurobi_stats_logs\m30n10\sample_data_44_size_10_FCP.log"
Set parameter MIPGap to value 0.01
Set parameter TimeLimit to value 0
Gurobi Optimizer version 12.0.2 build v12.0.2rc0 (win64 - Windows 11+.0 (26200.2))

CPU model: AMD Ryzen 7 8845H w/ Radeon 780M Graphics, instruction set [SSE2|AVX|AVX2|AVX512]
Thread count: 8 physical cores, 16 logical processors, using up to 16 threads

Non-default parameters:
TimeLimit  0
MIPGap  0.01

Optimize a model with 9418 rows, 3297 columns and 74904 nonzeros
Model fingerprint: 0xb571cc61
Variable types: 2487 continuous, 810 integer (810 binary)
Coefficient statistics:
  Matrix range     [2e-01, 3e+00]
  Objective range  [3e-03, 8e-02]
  Bounds range     [1e+00, 1e+00]
  RHS range        [5e-01, 3e+00]
Presolve time: 0.00s

Explored 0 nodes (0 simplex iterations) in 0.01 seconds (0.01 work units)
Thread count was 1 (of 16 available processors)

Solution count 0

Time limit reached
Best objective -, best bound -, gap -
